UNSAT
The proof for unsat is:
([-7, 3] [14, 7]) -> [3, 14]
([3, 14] [-14, 13]) -> [3, 13]
([3, 13] [-12, -13]) -> [3, -12]
([3, -12] [-1, 12]) -> [-1, 3]
([-1, 3] [1]) -> [3]
([3] [-2, -3, 8]) -> [-2, 8]
([-2, 8] [-1, 2]) -> [-1, 8]
([-1, 8] [1]) -> [8]
([8] [-8, -9]) -> [-9]
([-9] [-11, 9]) -> [-11]
([-11] [15, 11]) -> [15]
([15] [-15, 13]) -> [13]
([13] [-12, -13]) -> [-12]
([-12] [-1, 12]) -> [-1]
([-1] [1]) -> []
